NAME : sample_30
COMMENT : Sample TSP instance with 30 cities
TYPE : TSP
DIMENSION : 30
EDGE_WEIGHT_TYPE : EUC_2D
NODE_COORD_SECTION
1 512 779
2 410 63
3 39 371
4 138 805
5 494 930
6 152 11
7 867 11
8 673 78
9 147 795
10 382 363
11 37 580
12 484 143
13 686 222
14 829 862
15 890 908
16 806 247
17 957 907
18 857 775
19 789 726
20 546 311
21 162 126
22 98 891
23 649 542
24 613 151
25 97 168
26 299 918
27 339 426
28 3 782
29 427 652
30 618 215
EOF
